c generated by sgen
p cnf 73 156
-2 -3 -4 0
-1 -3 -4 0
-1 -2 -4 0
-1 -2 -3 0
-6 -7 -8 0
-5 -7 -8 0
-5 -6 -8 0
-5 -6 -7 0
-10 -11 -12 0
-9 -11 -12 0
-9 -10 -12 0
-9 -10 -11 0
-14 -15 -16 0
-13 -15 -16 0
-13 -14 -16 0
-13 -14 -15 0
-18 -19 -20 0
-17 -19 -20 0
-17 -18 -20 0
-17 -18 -19 0
-22 -23 -24 0
-21 -23 -24 0
-21 -22 -24 0
-21 -22 -23 0
-26 -27 -28 0
-25 -27 -28 0
-25 -26 -28 0
-25 -26 -27 0
-30 -31 -32 0
-29 -31 -32 0
-29 -30 -32 0
-29 -30 -31 0
-34 -35 -36 0
-33 -35 -36 0
-33 -34 -36 0
-33 -34 -35 0
-38 -39 -40 0
-37 -39 -40 0
-37 -38 -40 0
-37 -38 -39 0
-42 -43 -44 0
-41 -43 -44 0
-41 -42 -44 0
-41 -42 -43 0
-46 -47 -48 0
-45 -47 -48 0
-45 -46 -48 0
-45 -46 -47 0
-50 -51 -52 0
-49 -51 -52 0
-49 -50 -52 0
-49 -50 -51 0
-54 -55 -56 0
-53 -55 -56 0
-53 -54 -56 0
-53 -54 -55 0
-58 -59 -60 0
-57 -59 -60 0
-57 -58 -60 0
-57 -58 -59 0
-62 -63 -64 0
-61 -63 -64 0
-61 -62 -64 0
-61 -62 -63 0
-66 -67 -68 0
-65 -67 -68 0
-65 -66 -68 0
-65 -66 -67 0
-69 -70 -71 0
-69 -70 -72 0
-69 -70 -73 0
-69 -71 -72 0
-69 -71 -73 0
-69 -72 -73 0
-70 -71 -72 0
-70 -71 -73 0
-70 -72 -73 0
-71 -72 -73 0
8 60 37 0
50 60 37 0
50 8 37 0
50 8 60 0
36 9 69 0
5 9 69 0
5 36 69 0
5 36 9 0
34 16 4 0
22 16 4 0
22 34 4 0
22 34 16 0
64 57 66 0
19 57 66 0
19 64 66 0
19 64 57 0
13 27 52 0
54 27 52 0
54 13 52 0
54 13 27 0
42 62 38 0
35 62 38 0
35 42 38 0
35 42 62 0
61 3 28 0
47 3 28 0
47 61 28 0
47 61 3 0
29 40 24 0
53 40 24 0
53 29 24 0
53 29 40 0
49 23 70 0
63 23 70 0
63 49 70 0
63 49 23 0
32 44 68 0
51 44 68 0
51 32 68 0
51 32 44 0
43 6 20 0
1 6 20 0
1 43 20 0
1 43 6 0
30 11 14 0
58 11 14 0
58 30 14 0
58 30 11 0
10 65 25 0
21 65 25 0
21 10 25 0
21 10 65 0
39 48 12 0
17 48 12 0
17 39 12 0
17 39 48 0
26 72 31 0
18 72 31 0
18 26 31 0
18 26 72 0
73 56 59 0
2 56 59 0
2 73 59 0
2 73 56 0
55 46 67 0
33 46 67 0
33 55 67 0
33 55 46 0
7 15 45 0
7 15 41 0
7 15 71 0
7 45 41 0
7 45 71 0
7 41 71 0
15 45 41 0
15 45 71 0
15 41 71 0
45 41 71 0
